19:21:28 | INFO    | Run started | run_id: SR_SV_RD_case2_P5_eps85 | log file: C:\Users\Asus\Documents\GitHub\logistics-model2\internal-logistics-model2\results\SR_SV_RD\case2\SR_SV_RD_case2_P5_eps85_2026_05_06_19_21.log
19:21:28 | INFO    | Products loaded | sheet=case2 | rows=15
19:21:28 | INFO    | Data loaded | |N|=31 |Nw|=30 |K|=1 |R|=1 |P|=5 | U=30
19:21:28 | INFO    | Big-M | time=491.0 precedence=480.0 wait=465.0 load_lb=20 load_ub=20
19:21:28 | INFO    | Set parameter Username
19:21:28 | INFO    | Set parameter LicenseID to value 2811848
19:21:28 | INFO    | Academic license - for non-commercial use only - expires 2027-04-22
19:21:28 | INFO    | Objective set | primary: min route_duration | tie-break weight on wait: 0.001
19:21:28 | INFO    | Constraint (3) added | total_wait <= 85
19:21:28 | INFO    | Constraints (4)-(9) added | route structure
19:21:28 | INFO    | Constraints (10)-(12) added | product assignment
19:21:28 | INFO    | Constraints (13)-(15) added | route timing
19:21:29 | INFO    | Constraints (16) added | time consistency
19:21:29 | INFO    | Constraints (17)-(19) added | service times
19:21:29 | INFO    | Constraints (20)-(22) added | precedence, route closure, waiting
19:21:29 | INFO    | Constraints (23)-(27) added | load propagation
19:21:29 | INFO    | Constraints (28)-(32) added | MTZ and route ordering
19:21:29 | INFO    | Set parameter TimeLimit to value 600
19:21:29 | INFO    | Set parameter MIPGap to value 0.01
19:21:29 | INFO    | Set parameter Presolve to value 2
19:21:29 | INFO    | Set parameter LogFile to value "C:\Users\Asus\Documents\GitHub\logistics-model2\internal-logistics-model2\results\SR_SV_RD\case2\result_SR_SV_RD_case2_P5_eps85_2026_05_06_19_21.log"
19:21:29 | INFO    | Solver configured | TimeLimit=600s | MIPGap=0.01 | gurobi_log=C:\Users\Asus\Documents\GitHub\logistics-model2\internal-logistics-model2\results\SR_SV_RD\case2\result_SR_SV_RD_case2_P5_eps85_2026_05_06_19_21.log
19:21:29 | INFO    | Optimization starting...
19:21:29 | INFO    | Gurobi Optimizer version 12.0.0 build v12.0.0rc1 (win64 - Windows 10.0 (19045.2))
19:21:29 | INFO    | 
19:21:29 | INFO    | CPU model: 12th Gen Intel(R) Core(TM) i7-12650H, instruction set [SSE2|AVX|AVX2]
19:21:29 | INFO    | Thread count: 10 physical cores, 16 logical processors, using up to 16 threads
19:21:29 | INFO    | 
19:21:29 | INFO    | Non-default parameters:
19:21:29 | INFO    | TimeLimit  600
19:21:29 | INFO    | MIPGap  0.01
19:21:29 | INFO    | Presolve  2
19:21:29 | INFO    | 
19:21:29 | INFO    | Optimize a model with 3852 rows, 1123 columns and 19434 nonzeros
19:21:29 | INFO    | Model fingerprint: 0xf09c2eed
19:21:29 | INFO    | Variable types: 158 continuous, 965 integer (935 binary)
19:21:29 | INFO    | Coefficient statistics:
19:21:29 | INFO    |   Matrix range     [1e+00, 5e+02]
19:21:29 | INFO    |   Objective range  [1e-03, 1e+00]
19:21:29 | INFO    |   Bounds range     [1e+00, 3e+01]
19:21:29 | INFO    |   RHS range        [1e+00, 5e+02]
19:21:29 | INFO    | Presolve removed 3621 rows and 1026 columns
19:21:29 | INFO    | Presolve time: 0.00s
19:21:29 | INFO    | Presolved: 231 rows, 97 columns, 1186 nonzeros
19:21:29 | INFO    | Variable types: 28 continuous, 69 integer (61 binary)
19:21:29 | INFO    | Root relaxation presolve removed 4 rows and 0 columns
19:21:29 | INFO    | Root relaxation presolved: 227 rows, 100 columns, 1172 nonzeros
19:21:29 | INFO    | 
19:21:29 | INFO    | 
19:21:29 | INFO    | Root relaxation: objective 1.500000e-02, 51 iterations, 0.00 seconds (0.00 work units)
19:21:29 | INFO    | 
19:21:29 | INFO    |     Nodes    |    Current Node    |     Objective Bounds      |     Work
19:21:29 | INFO    |  Expl Unexpl |  Obj  Depth IntInf | Incumbent    BestBd   Gap | It/Node Time
19:21:29 | INFO    | 
19:21:29 | INFO    |      0     0    0.01500    0   17          -    0.01500      -     -    0s
19:21:29 | INFO    | H    0     0                     121.0850000    0.01500   100%     -    0s
19:21:29 | INFO    |      0     0    0.02843    0   33  121.08500    0.02843   100%     -    0s
19:21:29 | INFO    | H    0     0                      75.0850000    0.02879   100%     -    0s
19:21:29 | INFO    |      0     0    0.02966    0   33   75.08500    0.02966   100%     -    0s
19:21:29 | INFO    |      0     0    0.04761    0   27   75.08500    0.04761   100%     -    0s
19:21:29 | INFO    | H    0     0                      67.0850000    0.04952   100%     -    0s
19:21:29 | INFO    |      0     0    0.05574    0   31   67.08500    0.05574   100%     -    0s
19:21:29 | INFO    |      0     0    0.06513    0   25   67.08500    0.06513   100%     -    0s
19:21:29 | INFO    |      0     0    0.06770    0   29   67.08500    0.06770   100%     -    0s
19:21:29 | INFO    |      0     0    0.07871    0   29   67.08500    0.07871   100%     -    0s
19:21:29 | INFO    |      0     0    0.08026    0   29   67.08500    0.08026   100%     -    0s
19:21:29 | INFO    |      0     0    0.08052    0   32   67.08500    0.08052   100%     -    0s
19:21:29 | INFO    |      0     0    0.08062    0   32   67.08500    0.08062   100%     -    0s
19:21:29 | INFO    |      0     0    0.08073    0   31   67.08500    0.08073   100%     -    0s
19:21:29 | INFO    |      0     0   51.01500    0   31   67.08500   51.01500  24.0%     -    0s
19:21:29 | INFO    |      0     0   51.06400    0   25   67.08500   51.06400  23.9%     -    0s
19:21:29 | INFO    |      0     0   57.03100    0   33   67.08500   57.03100  15.0%     -    0s
19:21:29 | INFO    |      0     0   57.03100    0   34   67.08500   57.03100  15.0%     -    0s
19:21:29 | INFO    |      0     0   57.03210    0   35   67.08500   57.03210  15.0%     -    0s
19:21:29 | INFO    |      0     0   59.04800    0   28   67.08500   59.04800  12.0%     -    0s
19:21:29 | INFO    |      0     0   66.67258    0   30   67.08500   66.67258  0.61%     -    0s
19:21:29 | INFO    | 
19:21:29 | INFO    | Cutting planes:
19:21:29 | INFO    |   Implied bound: 6
19:21:29 | INFO    |   MIR: 13
19:21:29 | INFO    |   Relax-and-lift: 3
19:21:29 | INFO    | 
19:21:29 | INFO    | Explored 1 nodes (760 simplex iterations) in 0.09 seconds (0.06 work units)
19:21:29 | INFO    | Thread count was 16 (of 16 available processors)
19:21:29 | INFO    | 
19:21:29 | INFO    | Solution count 2: 67.085 75.085 
19:21:29 | INFO    | 
19:21:29 | INFO    | Optimal solution found (tolerance 1.00e-02)
19:21:29 | INFO    | Best objective 6.708500000000e+01, best bound 6.667257746479e+01, gap 0.6148%
19:21:29 | INFO    | Solution found | route_duration=67.00 | total_wait=85.00
19:21:29 | INFO    | Objective=67.09 | runtime=0.09s | MIP Gap=0.61%
19:21:29 | INFO    | Generating Excel output | C:\Users\Asus\Documents\GitHub\logistics-model2\internal-logistics-model2\results\SR_SV_RD\case2\result_SR_SV_RD_case2_P5_eps85_2026_05_06_19_21.xlsx
19:21:29 | INFO    | Excel output written | 12 sheets | C:\Users\Asus\Documents\GitHub\logistics-model2\internal-logistics-model2\results\SR_SV_RD\case2\result_SR_SV_RD_case2_P5_eps85_2026_05_06_19_21.xlsx
19:21:29 | INFO    | Master Pareto updated | 5 total rows | C:\Users\Asus\Documents\GitHub\logistics-model2\internal-logistics-model2\results\master_pareto.xlsx
19:21:29 | INFO    | Run complete | run_id=SR_SV_RD_case2_P5_eps85
